<instance format="XCSP3" type="COP">
  <variables>
    <var id="x" note="x is the number of unused bins"> 0..23 </var>
    <array id="b" note="b[i][j] indicates the weight of the jth object put in the ith bin. It is 0 if there is no object at this place." size="[23][3]"> 0 251..253 255..258 266..268 270 278 280 283 284 288 295 296 307 313 323 327 331 336 352 369 370 372 378 381 385 389 391 392 395 396 398 399 409 447 450 470 481 492 493 495 </array>
  </variables>
  <constraints>
    <group>
      <mdd>
        <list> %... </list>
        <transitions> (root,0,n3)(root,251,n5)(root,252,n6)(root,253,n8)(root,255,n8)(root,256,n11)(root,257,n13)(root,258,n15)(root,266,n16)(root,267,n19)(root,268,n21)(root,270,n23)(root,278,n25)(root,280,n27)(root,283,n29)(root,284,n30)(root,288,n33)(root,295,n35)(root,296,n36)(root,307,n38)(root,313,n40)(root,323,n43)(root,327,n45)(root,331,n46)(root,336,n49)(root,352,n51)(root,369,n52)(root,370,n53)(root,372,n54)(root,378,n55)(root,381,n56)(root,385,n57)(root,389,n58)(root,391,n59)(root,392,n60)(root,395,n61)(root,396,n62)(root,398,n63)(root,399,n64)(root,409,n65)(root,447,n66)(root,450,n67)(root,470,n68)(root,481,n69)(root,492,n70)(root,493,n71)(root,495,n72)(n3,0,n4)(n4,0,nodeT)(n5,0,n4)(n5,251,n4)(n6,0,n4)(n6,251,n7)(n6,252,n7)(n7,0,nodeT)(n7,251,nodeT)(n8,0,n4)(n8,251,n7)(n8,252,n9)(n8,253,n10)(n9,0,nodeT)(n9,251,nodeT)(n9,252,nodeT)(n10,0,nodeT)(n10,251,nodeT)(n10,252,nodeT)(n10,253,nodeT)(n11,0,n4)(n11,251,n7)(n11,252,n9)(n11,253,n10)(n11,255,n10)(n11,256,n12)(n12,0,nodeT)(n12,251,nodeT)(n12,252,nodeT)(n12,253,nodeT)(n12,255,nodeT)(n13,0,n4)(n13,251,n7)(n13,252,n9)(n13,253,n10)(n13,255,n10)(n13,256,n14)(n14,0,nodeT)(n14,251,nodeT)(n14,252,nodeT)(n14,253,nodeT)(n14,255,nodeT)(n14,256,nodeT)(n15,0,n4)(n15,251,n7)(n15,252,n9)(n15,253,n10)(n15,255,n10)(n15,256,n14)(n15,257,n14)(n16,0,n4)(n16,251,n7)(n16,252,n9)(n16,253,n10)(n16,255,n10)(n16,256,n14)(n16,257,n14)(n16,258,n17)(n16,266,n18)(n17,0,nodeT)(n17,251,nodeT)(n17,252,nodeT)(n17,253,nodeT)(n17,255,nodeT)(n17,256,nodeT)(n17,257,nodeT)(n18,0,nodeT)(n18,251,nodeT)(n18,252,nodeT)(n18,253,nodeT)(n18,255,nodeT)(n18,256,nodeT)(n18,257,nodeT)(n18,258,nodeT)(n19,0,n4)(n19,251,n7)(n19,252,n9)(n19,253,n10)(n19,255,n10)(n19,256,n14)(n19,257,n14)(n19,258,n17)(n19,266,n20)(n20,0,nodeT)(n20,251,nodeT)(n20,252,nodeT)(n20,253,nodeT)(n20,255,nodeT)(n20,256,nodeT)(n20,257,nodeT)(n20,258,nodeT)(n20,266,nodeT)(n21,0,n4)(n21,251,n7)(n21,252,n9)(n21,253,n10)(n21,255,n10)(n21,256,n14)(n21,257,n14)(n21,258,n17)(n21,266,n20)(n21,267,n20)(n21,268,n22)(n22,0,nodeT)(n22,251,nodeT)(n22,252,nodeT)(n22,253,nodeT)(n22,255,nodeT)(n22,256,nodeT)(n22,257,nodeT)(n22,258,nodeT)(n22,266,nodeT)(n22,267,nodeT)(n23,0,n4)(n23,251,n7)(n23,252,n9)(n23,253,n10)(n23,255,n10)(n23,256,n14)(n23,257,n14)(n23,258,n17)(n23,266,n20)(n23,267,n20)(n23,268,n24)(n24,0,nodeT)(n24,251,nodeT)(n24,252,nodeT)(n24,253,nodeT)(n24,255,nodeT)(n24,256,nodeT)(n24,257,nodeT)(n24,258,nodeT)(n24,266,nodeT)(n24,267,nodeT)(n24,268,nodeT)(n25,0,n4)(n25,251,n7)(n25,252,n9)(n25,253,n10)(n25,255,n10)(n25,256,n14)(n25,257,n14)(n25,258,n17)(n25,266,n20)(n25,267,n20)(n25,268,n24)(n25,270,n24)(n25,278,n26)(n26,0,nodeT)(n26,251,nodeT)(n26,252,nodeT)(n26,253,nodeT)(n26,255,nodeT)(n26,256,nodeT)(n26,257,nodeT)(n26,258,nodeT)(n26,266,nodeT)(n26,267,nodeT)(n26,268,nodeT)(n26,270,nodeT)(n27,0,n4)(n27,251,n7)(n27,252,n9)(n27,253,n10)(n27,255,n10)(n27,256,n14)(n27,257,n14)(n27,258,n17)(n27,266,n20)(n27,267,n20)(n27,268,n24)(n27,270,n24)(n27,278,n28)(n28,0,nodeT)(n28,251,nodeT)(n28,252,nodeT)(n28,253,nodeT)(n28,255,nodeT)(n28,256,nodeT)(n28,257,nodeT)(n28,258,nodeT)(n28,266,nodeT)(n28,267,nodeT)(n28,268,nodeT)(n28,270,nodeT)(n28,278,nodeT)(n29,0,n4)(n29,251,n7)(n29,252,n9)(n29,253,n10)(n29,255,n10)(n29,256,n14)(n29,257,n14)(n29,258,n17)(n29,266,n20)(n29,267,n20)(n29,268,n24)(n29,270,n24)(n29,278,n28)(n29,280,n28)(n30,0,n4)(n30,251,n7)(n30,252,n9)(n30,253,n10)(n30,255,n10)(n30,256,n14)(n30,257,n14)(n30,258,n17)(n30,266,n20)(n30,267,n20)(n30,268,n24)(n30,270,n24)(n30,278,n28)(n30,280,n28)(n30,283,n31)(n30,284,n32)(n31,0,nodeT)(n31,251,nodeT)(n31,252,nodeT)(n31,253,nodeT)(n31,255,nodeT)(n31,256,nodeT)(n31,257,nodeT)(n31,258,nodeT)(n31,266,nodeT)(n31,267,nodeT)(n31,268,nodeT)(n31,270,nodeT)(n31,278,nodeT)(n31,280,nodeT)(n32,0,nodeT)(n32,251,nodeT)(n32,252,nodeT)(n32,253,nodeT)(n32,255,nodeT)(n32,256,nodeT)(n32,257,nodeT)(n32,258,nodeT)(n32,266,nodeT)(n32,267,nodeT)(n32,268,nodeT)(n32,270,nodeT)(n32,278,nodeT)(n32,280,nodeT)(n32,283,nodeT)(n33,0,n4)(n33,251,n7)(n33,252,n9)(n33,253,n10)(n33,255,n10)(n33,256,n14)(n33,257,n14)(n33,258,n17)(n33,266,n20)(n33,267,n20)(n33,268,n24)(n33,270,n24)(n33,278,n28)(n33,280,n28)(n33,283,n31)(n33,284,n34)(n34,0,nodeT)(n34,251,nodeT)(n34,252,nodeT)(n34,253,nodeT)(n34,255,nodeT)(n34,256,nodeT)(n34,257,nodeT)(n34,258,nodeT)(n34,266,nodeT)(n34,267,nodeT)(n34,268,nodeT)(n34,270,nodeT)(n34,278,nodeT)(n34,280,nodeT)(n34,283,nodeT)(n34,284,nodeT)(n35,0,n4)(n35,251,n7)(n35,252,n9)(n35,253,n10)(n35,255,n10)(n35,256,n14)(n35,257,n14)(n35,258,n17)(n35,266,n20)(n35,267,n20)(n35,268,n24)(n35,270,n24)(n35,278,n28)(n35,280,n28)(n35,283,n31)(n35,284,n34)(n35,288,n34)(n36,0,n4)(n36,251,n7)(n36,252,n9)(n36,253,n10)(n36,255,n10)(n36,256,n14)(n36,257,n14)(n36,258,n17)(n36,266,n20)(n36,267,n20)(n36,268,n24)(n36,270,n24)(n36,278,n28)(n36,280,n28)(n36,283,n31)(n36,284,n34)(n36,288,n34)(n36,295,n37)(n37,0,nodeT)(n37,251,nodeT)(n37,252,nodeT)(n37,253,nodeT)(n37,255,nodeT)(n37,256,nodeT)(n37,257,nodeT)(n37,258,nodeT)(n37,266,nodeT)(n37,267,nodeT)(n37,268,nodeT)(n37,270,nodeT)(n37,278,nodeT)(n37,280,nodeT)(n37,283,nodeT)(n37,284,nodeT)(n37,288,nodeT)(n38,0,n4)(n38,251,n7)(n38,252,n9)(n38,253,n10)(n38,255,n10)(n38,256,n14)(n38,257,n14)(n38,258,n17)(n38,266,n20)(n38,267,n20)(n38,268,n24)(n38,270,n24)(n38,278,n28)(n38,280,n28)(n38,283,n31)(n38,284,n34)(n38,288,n34)(n38,295,n37)(n38,296,n39)(n39,0,nodeT)(n39,251,nodeT)(n39,252,nodeT)(n39,253,nodeT)(n39,255,nodeT)(n39,256,nodeT)(n39,257,nodeT)(n39,258,nodeT)(n39,266,nodeT)(n39,267,nodeT)(n39,268,nodeT)(n39,270,nodeT)(n39,278,nodeT)(n39,280,nodeT)(n39,283,nodeT)(n39,284,nodeT)(n39,288,nodeT)(n39,295,nodeT)(n40,0,n4)(n40,251,n7)(n40,252,n9)(n40,253,n10)(n40,255,n10)(n40,256,n14)(n40,257,n14)(n40,258,n17)(n40,266,n20)(n40,267,n20)(n40,268,n24)(n40,270,n24)(n40,278,n28)(n40,280,n28)(n40,283,n31)(n40,284,n34)(n40,288,n34)(n40,295,n37)(n40,296,n39)(n40,307,n41)(n40,313,n42)(n41,0,nodeT)(n41,251,nodeT)(n41,252,nodeT)(n41,253,nodeT)(n41,255,nodeT)(n41,256,nodeT)(n41,257,nodeT)(n41,258,nodeT)(n41,266,nodeT)(n41,267,nodeT)(n41,268,nodeT)(n41,270,nodeT)(n41,278,nodeT)(n41,280,nodeT)(n41,283,nodeT)(n41,284,nodeT)(n41,288,nodeT)(n41,295,nodeT)(n41,296,nodeT)(n42,0,nodeT)(n42,251,nodeT)(n42,252,nodeT)(n42,253,nodeT)(n42,255,nodeT)(n42,256,nodeT)(n42,257,nodeT)(n42,258,nodeT)(n42,266,nodeT)(n42,267,nodeT)(n42,268,nodeT)(n42,270,nodeT)(n42,278,nodeT)(n42,280,nodeT)(n42,283,nodeT)(n42,284,nodeT)(n42,288,nodeT)(n42,295,nodeT)(n42,296,nodeT)(n42,307,nodeT)(n43,0,n4)(n43,251,n7)(n43,252,n9)(n43,253,n10)(n43,255,n10)(n43,256,n14)(n43,257,n14)(n43,258,n17)(n43,266,n20)(n43,267,n20)(n43,268,n24)(n43,270,n24)(n43,278,n28)(n43,280,n28)(n43,283,n31)(n43,284,n34)(n43,288,n34)(n43,295,n37)(n43,296,n39)(n43,307,n41)(n43,313,n44)(n44,0,nodeT)(n44,251,nodeT)(n44,252,nodeT)(n44,253,nodeT)(n44,255,nodeT)(n44,256,nodeT)(n44,257,nodeT)(n44,258,nodeT)(n44,266,nodeT)(n44,267,nodeT)(n44,268,nodeT)(n44,270,nodeT)(n44,278,nodeT)(n44,280,nodeT)(n44,283,nodeT)(n44,284,nodeT)(n44,288,nodeT)(n44,295,nodeT)(n44,296,nodeT)(n44,307,nodeT)(n44,313,nodeT)(n45,0,n4)(n45,251,n7)(n45,252,n9)(n45,253,n10)(n45,255,n10)(n45,256,n14)(n45,257,n14)(n45,258,n17)(n45,266,n20)(n45,267,n20)(n45,268,n24)(n45,270,n24)(n45,278,n28)(n45,280,n28)(n45,283,n31)(n45,284,n34)(n45,288,n34)(n45,295,n37)(n45,296,n39)(n45,307,n41)(n45,313,n44)(n45,323,n44)(n46,0,n4)(n46,251,n7)(n46,252,n9)(n46,253,n10)(n46,255,n10)(n46,256,n14)(n46,257,n14)(n46,258,n17)(n46,266,n20)(n46,267,n20)(n46,268,n24)(n46,270,n24)(n46,278,n28)(n46,280,n28)(n46,283,n31)(n46,284,n34)(n46,288,n34)(n46,295,n37)(n46,296,n39)(n46,307,n41)(n46,313,n44)(n46,323,n44)(n46,327,n47)(n46,331,n48)(n47,0,nodeT)(n47,251,nodeT)(n47,252,nodeT)(n47,253,nodeT)(n47,255,nodeT)(n47,256,nodeT)(n47,257,nodeT)(n47,258,nodeT)(n47,266,nodeT)(n47,267,nodeT)(n47,268,nodeT)(n47,270,nodeT)(n47,278,nodeT)(n47,280,nodeT)(n47,283,nodeT)(n47,284,nodeT)(n47,288,nodeT)(n47,295,nodeT)(n47,296,nodeT)(n47,307,nodeT)(n47,313,nodeT)(n47,323,nodeT)(n48,0,nodeT)(n48,251,nodeT)(n48,252,nodeT)(n48,253,nodeT)(n48,255,nodeT)(n48,256,nodeT)(n48,257,nodeT)(n48,258,nodeT)(n48,266,nodeT)(n48,267,nodeT)(n48,268,nodeT)(n48,270,nodeT)(n48,278,nodeT)(n48,280,nodeT)(n48,283,nodeT)(n48,284,nodeT)(n48,288,nodeT)(n48,295,nodeT)(n48,296,nodeT)(n48,307,nodeT)(n48,313,nodeT)(n48,323,nodeT)(n48,327,nodeT)(n49,0,n4)(n49,251,n7)(n49,252,n9)(n49,253,n10)(n49,255,n10)(n49,256,n14)(n49,257,n14)(n49,258,n17)(n49,266,n20)(n49,267,n20)(n49,268,n24)(n49,270,n24)(n49,278,n28)(n49,280,n28)(n49,283,n31)(n49,284,n34)(n49,288,n34)(n49,295,n37)(n49,296,n39)(n49,307,n41)(n49,313,n44)(n49,323,n44)(n49,327,n47)(n49,331,n50)(n50,0,nodeT)(n50,251,nodeT)(n50,252,nodeT)(n50,253,nodeT)(n50,255,nodeT)(n50,256,nodeT)(n50,257,nodeT)(n50,258,nodeT)(n50,266,nodeT)(n50,267,nodeT)(n50,268,nodeT)(n50,270,nodeT)(n50,278,nodeT)(n50,280,nodeT)(n50,283,nodeT)(n50,284,nodeT)(n50,288,nodeT)(n50,295,nodeT)(n50,296,nodeT)(n50,307,nodeT)(n50,313,nodeT)(n50,323,nodeT)(n50,327,nodeT)(n50,331,nodeT)(n51,0,n4)(n51,251,n7)(n51,252,n9)(n51,253,n10)(n51,255,n10)(n51,256,n14)(n51,257,n14)(n51,258,n17)(n51,266,n20)(n51,267,n20)(n51,268,n24)(n51,270,n24)(n51,278,n28)(n51,280,n28)(n51,283,n31)(n51,284,n34)(n51,288,n34)(n51,295,n37)(n51,296,n39)(n51,307,n41)(n51,313,n44)(n51,323,n44)(n51,327,n44)(n51,331,n44)(n51,336,n42)(n51,352,n41)(n52,0,n4)(n52,251,n7)(n52,252,n9)(n52,253,n10)(n52,255,n10)(n52,256,n14)(n52,257,n14)(n52,258,n17)(n52,266,n20)(n52,267,n20)(n52,268,n24)(n52,270,n24)(n52,278,n28)(n52,280,n28)(n52,283,n31)(n52,284,n34)(n52,288,n34)(n52,295,n37)(n52,296,n39)(n52,307,n41)(n52,313,n44)(n52,323,n42)(n52,327,n41)(n52,331,n41)(n52,336,n39)(n52,352,n28)(n53,0,n4)(n53,251,n7)(n53,252,n9)(n53,253,n10)(n53,255,n10)(n53,256,n14)(n53,257,n14)(n53,258,n17)(n53,266,n20)(n53,267,n20)(n53,268,n24)(n53,270,n24)(n53,278,n28)(n53,280,n28)(n53,283,n31)(n53,284,n34)(n53,288,n34)(n53,295,n37)(n53,296,n39)(n53,307,n41)(n53,313,n44)(n53,323,n42)(n53,327,n41)(n53,331,n41)(n53,336,n37)(n53,352,n28)(n53,369,n18)(n54,0,n4)(n54,251,n7)(n54,252,n9)(n54,253,n10)(n54,255,n10)(n54,256,n14)(n54,257,n14)(n54,258,n17)(n54,266,n20)(n54,267,n20)(n54,268,n24)(n54,270,n24)(n54,278,n28)(n54,280,n28)(n54,283,n31)(n54,284,n34)(n54,288,n34)(n54,295,n37)(n54,296,n39)(n54,307,n41)(n54,313,n44)(n54,323,n41)(n54,327,n41)(n54,331,n41)(n54,336,n37)(n54,352,n26)(n54,369,n18)(n54,370,n18)(n55,0,n4)(n55,251,n7)(n55,252,n9)(n55,253,n10)(n55,255,n10)(n55,256,n14)(n55,257,n14)(n55,258,n17)(n55,266,n20)(n55,267,n20)(n55,268,n24)(n55,270,n24)(n55,278,n28)(n55,280,n28)(n55,283,n31)(n55,284,n34)(n55,288,n34)(n55,295,n37)(n55,296,n39)(n55,307,n41)(n55,313,n42)(n55,323,n41)(n55,327,n39)(n55,331,n37)(n55,336,n34)(n55,352,n26)(n55,369,n10)(n55,370,n9)(n55,372,n4)(n56,0,n4)(n56,251,n7)(n56,252,n9)(n56,253,n10)(n56,255,n10)(n56,256,n14)(n56,257,n14)(n56,258,n17)(n56,266,n20)(n56,267,n20)(n56,268,n24)(n56,270,n24)(n56,278,n28)(n56,280,n28)(n56,283,n31)(n56,284,n34)(n56,288,n34)(n56,295,n37)(n56,296,n39)(n56,307,n41)(n56,313,n41)(n56,323,n41)(n56,327,n37)(n56,331,n37)(n56,336,n32)(n56,352,n22)(n56,369,n4)(n56,370,n4)(n56,372,n4)(n56,378,n4)(n57,0,n4)(n57,251,n7)(n57,252,n9)(n57,253,n10)(n57,255,n10)(n57,256,n14)(n57,257,n14)(n57,258,n17)(n57,266,n20)(n57,267,n20)(n57,268,n24)(n57,270,n24)(n57,278,n28)(n57,280,n28)(n57,283,n31)(n57,284,n34)(n57,288,n34)(n57,295,n37)(n57,296,n39)(n57,307,n41)(n57,313,n41)(n57,323,n37)(n57,327,n37)(n57,331,n34)(n57,336,n28)(n57,352,n18)(n57,369,n4)(n57,370,n4)(n57,372,n4)(n57,378,n4)(n57,381,n4)(n58,0,n4)(n58,251,n7)(n58,252,n9)(n58,253,n10)(n58,255,n10)(n58,256,n14)(n58,257,n14)(n58,258,n17)(n58,266,n20)(n58,267,n20)(n58,268,n24)(n58,270,n24)(n58,278,n28)(n58,280,n28)(n58,283,n31)(n58,284,n34)(n58,288,n34)(n58,295,n37)(n58,296,n39)(n58,307,n41)(n58,313,n41)(n58,323,n37)(n58,327,n34)(n58,331,n31)(n58,336,n26)(n58,352,n18)(n58,369,n4)(n58,370,n4)(n58,372,n4)(n58,378,n4)(n58,381,n4)(n58,385,n4)(n59,0,n4)(n59,251,n7)(n59,252,n9)(n59,253,n10)(n59,255,n10)(n59,256,n14)(n59,257,n14)(n59,258,n17)(n59,266,n20)(n59,267,n20)(n59,268,n24)(n59,270,n24)(n59,278,n28)(n59,280,n28)(n59,283,n31)(n59,284,n34)(n59,288,n34)(n59,295,n37)(n59,296,n39)(n59,307,n41)(n59,313,n41)(n59,323,n34)(n59,327,n31)(n59,331,n28)(n59,336,n26)(n59,352,n17)(n59,369,n4)(n59,370,n4)(n59,372,n4)(n59,378,n4)(n59,381,n4)(n59,385,n4)(n59,389,n4)(n60,0,n4)(n60,251,n7)(n60,252,n9)(n60,253,n10)(n60,255,n10)(n60,256,n14)(n60,257,n14)(n60,258,n17)(n60,266,n20)(n60,267,n20)(n60,268,n24)(n60,270,n24)(n60,278,n28)(n60,280,n28)(n60,283,n31)(n60,284,n34)(n60,288,n34)(n60,295,n37)(n60,296,n39)(n60,307,n41)(n60,313,n39)(n60,323,n34)(n60,327,n31)(n60,331,n26)(n60,336,n26)(n60,352,n14)(n60,369,n4)(n60,370,n4)(n60,372,n4)(n60,378,n4)(n60,381,n4)(n60,385,n4)(n60,389,n4)(n60,391,n4)(n61,0,n4)(n61,251,n7)(n61,252,n9)(n61,253,n10)(n61,255,n10)(n61,256,n14)(n61,257,n14)(n61,258,n17)(n61,266,n20)(n61,267,n20)(n61,268,n24)(n61,270,n24)(n61,278,n28)(n61,280,n28)(n61,283,n31)(n61,284,n34)(n61,288,n34)(n61,295,n37)(n61,296,n39)(n61,307,n41)(n61,313,n37)(n61,323,n31)(n61,327,n28)(n61,331,n26)(n61,336,n24)(n61,352,n10)(n61,369,n4)(n61,370,n4)(n61,372,n4)(n61,378,n4)(n61,381,n4)(n61,385,n4)(n61,389,n4)(n61,391,n4)(n61,392,n4)(n62,0,n4)(n62,251,n7)(n62,252,n9)(n62,253,n10)(n62,255,n10)(n62,256,n14)(n62,257,n14)(n62,258,n17)(n62,266,n20)(n62,267,n20)(n62,268,n24)(n62,270,n24)(n62,278,n28)(n62,280,n28)(n62,283,n31)(n62,284,n34)(n62,288,n34)(n62,295,n37)(n62,296,n39)(n62,307,n41)(n62,313,n37)(n62,323,n31)(n62,327,n26)(n62,331,n26)(n62,336,n24)(n62,352,n9)(n62,369,n4)(n62,370,n4)(n62,372,n4)(n62,378,n4)(n62,381,n4)(n62,385,n4)(n62,389,n4)(n62,391,n4)(n62,392,n4)(n62,395,n4)(n63,0,n4)(n63,251,n7)(n63,252,n9)(n63,253,n10)(n63,255,n10)(n63,256,n14)(n63,257,n14)(n63,258,n17)(n63,266,n20)(n63,267,n20)(n63,268,n24)(n63,270,n24)(n63,278,n28)(n63,280,n28)(n63,283,n31)(n63,284,n34)(n63,288,n34)(n63,295,n37)(n63,296,n39)(n63,307,n39)(n63,313,n37)(n63,323,n28)(n63,327,n26)(n63,331,n26)(n63,336,n20)(n63,352,n4)(n63,369,n4)(n63,370,n4)(n63,372,n4)(n63,378,n4)(n63,381,n4)(n63,385,n4)(n63,389,n4)(n63,391,n4)(n63,392,n4)(n63,395,n4)(n63,396,n4)(n64,0,n4)(n64,251,n7)(n64,252,n9)(n64,253,n10)(n64,255,n10)(n64,256,n14)(n64,257,n14)(n64,258,n17)(n64,266,n20)(n64,267,n20)(n64,268,n24)(n64,270,n24)(n64,278,n28)(n64,280,n28)(n64,283,n31)(n64,284,n34)(n64,288,n34)(n64,295,n37)(n64,296,n39)(n64,307,n37)(n64,313,n37)(n64,323,n28)(n64,327,n26)(n64,331,n26)(n64,336,n18)(n64,352,n4)(n64,369,n4)(n64,370,n4)(n64,372,n4)(n64,378,n4)(n64,381,n4)(n64,385,n4)(n64,389,n4)(n64,391,n4)(n64,392,n4)(n64,395,n4)(n64,396,n4)(n64,398,n4)(n65,0,n4)(n65,251,n7)(n65,252,n9)(n65,253,n10)(n65,255,n10)(n65,256,n14)(n65,257,n14)(n65,258,n17)(n65,266,n20)(n65,267,n20)(n65,268,n24)(n65,270,n24)(n65,278,n28)(n65,280,n28)(n65,283,n31)(n65,284,n34)(n65,288,n34)(n65,295,n37)(n65,296,n39)(n65,307,n34)(n65,313,n28)(n65,323,n24)(n65,327,n18)(n65,331,n18)(n65,336,n12)(n65,352,n4)(n65,369,n4)(n65,370,n4)(n65,372,n4)(n65,378,n4)(n65,381,n4)(n65,385,n4)(n65,389,n4)(n65,391,n4)(n65,392,n4)(n65,395,n4)(n65,396,n4)(n65,398,n4)(n65,399,n4)(n66,0,n4)(n66,251,n7)(n66,252,n9)(n66,253,n10)(n66,255,n10)(n66,256,n14)(n66,257,n14)(n66,258,n17)(n66,266,n20)(n66,267,n20)(n66,268,n24)(n66,270,n24)(n66,278,n26)(n66,280,n26)(n66,283,n26)(n66,284,n24)(n66,288,n18)(n66,295,n18)(n66,296,n17)(n66,307,n4)(n66,313,n4)(n66,323,n4)(n66,327,n4)(n66,331,n4)(n66,336,n4)(n66,352,n4)(n66,369,n4)(n66,370,n4)(n66,372,n4)(n66,378,n4)(n66,381,n4)(n66,385,n4)(n66,389,n4)(n66,391,n4)(n66,392,n4)(n66,395,n4)(n66,396,n4)(n66,398,n4)(n66,399,n4)(n66,409,n4)(n67,0,n4)(n67,251,n7)(n67,252,n9)(n67,253,n10)(n67,255,n10)(n67,256,n14)(n67,257,n14)(n67,258,n17)(n67,266,n20)(n67,267,n20)(n67,268,n24)(n67,270,n24)(n67,278,n26)(n67,280,n26)(n67,283,n22)(n67,284,n20)(n67,288,n18)(n67,295,n12)(n67,296,n10)(n67,307,n4)(n67,313,n4)(n67,323,n4)(n67,327,n4)(n67,331,n4)(n67,336,n4)(n67,352,n4)(n67,369,n4)(n67,370,n4)(n67,372,n4)(n67,378,n4)(n67,381,n4)(n67,385,n4)(n67,389,n4)(n67,391,n4)(n67,392,n4)(n67,395,n4)(n67,396,n4)(n67,398,n4)(n67,399,n4)(n67,409,n4)(n67,447,n4)(n68,0,n4)(n68,251,n7)(n68,252,n9)(n68,253,n10)(n68,255,n10)(n68,256,n14)(n68,257,n14)(n68,258,n17)(n68,266,n18)(n68,267,n18)(n68,268,n18)(n68,270,n18)(n68,278,n9)(n68,280,n4)(n68,283,n4)(n68,284,n4)(n68,288,n4)(n68,295,n4)(n68,296,n4)(n68,307,n4)(n68,313,n4)(n68,323,n4)(n68,327,n4)(n68,331,n4)(n68,336,n4)(n68,352,n4)(n68,369,n4)(n68,370,n4)(n68,372,n4)(n68,378,n4)(n68,381,n4)(n68,385,n4)(n68,389,n4)(n68,391,n4)(n68,392,n4)(n68,395,n4)(n68,396,n4)(n68,398,n4)(n68,399,n4)(n68,409,n4)(n68,447,n4)(n68,450,n4)(n69,0,n4)(n69,251,n7)(n69,252,n9)(n69,253,n10)(n69,255,n10)(n69,256,n14)(n69,257,n14)(n69,258,n17)(n69,266,n10)(n69,267,n9)(n69,268,n7)(n69,270,n4)(n69,278,n4)(n69,280,n4)(n69,283,n4)(n69,284,n4)(n69,288,n4)(n69,295,n4)(n69,296,n4)(n69,307,n4)(n69,313,n4)(n69,323,n4)(n69,327,n4)(n69,331,n4)(n69,336,n4)(n69,352,n4)(n69,369,n4)(n69,370,n4)(n69,372,n4)(n69,378,n4)(n69,381,n4)(n69,385,n4)(n69,389,n4)(n69,391,n4)(n69,392,n4)(n69,395,n4)(n69,396,n4)(n69,398,n4)(n69,399,n4)(n69,409,n4)(n69,447,n4)(n69,450,n4)(n69,470,n4)(n70,0,n4)(n70,251,n7)(n70,252,n9)(n70,253,n10)(n70,255,n10)(n70,256,n9)(n70,257,n7)(n70,258,n4)(n70,266,n4)(n70,267,n4)(n70,268,n4)(n70,270,n4)(n70,278,n4)(n70,280,n4)(n70,283,n4)(n70,284,n4)(n70,288,n4)(n70,295,n4)(n70,296,n4)(n70,307,n4)(n70,313,n4)(n70,323,n4)(n70,327,n4)(n70,331,n4)(n70,336,n4)(n70,352,n4)(n70,369,n4)(n70,370,n4)(n70,372,n4)(n70,378,n4)(n70,381,n4)(n70,385,n4)(n70,389,n4)(n70,391,n4)(n70,392,n4)(n70,395,n4)(n70,396,n4)(n70,398,n4)(n70,399,n4)(n70,409,n4)(n70,447,n4)(n70,450,n4)(n70,470,n4)(n70,481,n4)(n70,492,n4)(n71,0,n4)(n71,251,n7)(n71,252,n9)(n71,253,n10)(n71,255,n9)(n71,256,n7)(n71,257,n4)(n71,258,n4)(n71,266,n4)(n71,267,n4)(n71,268,n4)(n71,270,n4)(n71,278,n4)(n71,280,n4)(n71,283,n4)(n71,284,n4)(n71,288,n4)(n71,295,n4)(n71,296,n4)(n71,307,n4)(n71,313,n4)(n71,323,n4)(n71,327,n4)(n71,331,n4)(n71,336,n4)(n71,352,n4)(n71,369,n4)(n71,370,n4)(n71,372,n4)(n71,378,n4)(n71,381,n4)(n71,385,n4)(n71,389,n4)(n71,391,n4)(n71,392,n4)(n71,395,n4)(n71,396,n4)(n71,398,n4)(n71,399,n4)(n71,409,n4)(n71,447,n4)(n71,450,n4)(n71,470,n4)(n71,481,n4)(n71,492,n4)(n72,0,n4)(n72,251,n7)(n72,252,n9)(n72,253,n9)(n72,255,n4)(n72,256,n4)(n72,257,n4)(n72,258,n4)(n72,266,n4)(n72,267,n4)(n72,268,n4)(n72,270,n4)(n72,278,n4)(n72,280,n4)(n72,283,n4)(n72,284,n4)(n72,288,n4)(n72,295,n4)(n72,296,n4)(n72,307,n4)(n72,313,n4)(n72,323,n4)(n72,327,n4)(n72,331,n4)(n72,336,n4)(n72,352,n4)(n72,369,n4)(n72,370,n4)(n72,372,n4)(n72,378,n4)(n72,381,n4)(n72,385,n4)(n72,389,n4)(n72,391,n4)(n72,392,n4)(n72,395,n4)(n72,396,n4)(n72,398,n4)(n72,399,n4)(n72,409,n4)(n72,447,n4)(n72,450,n4)(n72,470,n4)(n72,481,n4)(n72,492,n4)(n72,493,n4) </transitions>
      </mdd>
      <args> b[0][] </args>
      <args> b[1][] </args>
      <args> b[2][] </args>
      <args> b[3][] </args>
      <args> b[4][] </args>
      <args> b[5][] </args>
      <args> b[6][] </args>
      <args> b[7][] </args>
      <args> b[8][] </args>
      <args> b[9][] </args>
      <args> b[10][] </args>
      <args> b[11][] </args>
      <args> b[12][] </args>
      <args> b[13][] </args>
      <args> b[14][] </args>
      <args> b[15][] </args>
      <args> b[16][] </args>
      <args> b[17][] </args>
      <args> b[18][] </args>
      <args> b[19][] </args>
      <args> b[20][] </args>
      <args> b[21][] </args>
      <args> b[22][] </args>
    </group>
    <cardinality>
      <list> b[][] </list>
      <values> 0 251 252 253 255 256 257 258 266 267 268 270 278 280 283 284 288 295 296 307 313 323 327 331 336 352 369 370 372 378 381 385 389 391 392 395 396 398 399 409 447 450 470 481 492 493 495 </values>
      <occurs> 9 2 2 4 1 2 1 1 2 1 2 1 2 1 1 2 1 1 1 1 2 1 1 2 1 2 1 1 1 1 1 1 1 1 1 1 1 1 1 1 1 1 1 1 2 1 1 </occurs>
    </cardinality>
    <lex class="symmetryBreaking">
      <list> b[0][] </list>
      <list> b[1][] </list>
      <list> b[2][] </list>
      <list> b[3][] </list>
      <list> b[4][] </list>
      <list> b[5][] </list>
      <list> b[6][] </list>
      <list> b[7][] </list>
      <list> b[8][] </list>
      <list> b[9][] </list>
      <list> b[10][] </list>
      <list> b[11][] </list>
      <list> b[12][] </list>
      <list> b[13][] </list>
      <list> b[14][] </list>
      <list> b[15][] </list>
      <list> b[16][] </list>
      <list> b[17][] </list>
      <list> b[18][] </list>
      <list> b[19][] </list>
      <list> b[20][] </list>
      <list> b[21][] </list>
      <list> b[22][] </list>
      <operator> ge </operator>
    </lex>
    <count>
      <list> b[][0] </list>
      <values> 0 </values>
      <condition> (eq,x) </condition>
    </count>
  </constraints>
  <objectives>
    <maximize> x </maximize>
  </objectives>
</instance>
